(set-info :Origin "This instance was generated by: BanditFuzz-- an RL fuzzer for SMT solvers" )
(set-info :Author "Joe Scott, Fed Mora, Vijay Ganesh" )
(set-info :Contact "Joe Scott, joseph.scott@uwaterloo.ca")
(set-logic QF_BV)
(declare-const bool_0 Bool)
(declare-const bool_1 Bool)
(declare-const bool_2 Bool)
(declare-const bool_3 Bool)
(declare-const bool_4 Bool)
(declare-const bv_0 (_ BitVec 32))
(declare-const bv_1 (_ BitVec 32))
(declare-const bv_2 (_ BitVec 32))
(declare-const bv_3 (_ BitVec 32))
(declare-const bv_4 (_ BitVec 32))
(assert (bvsgt (bvsub (bvsmod bv_0 bv_2) (bvudiv bv_4 #x9b71774f )) (bvsub (bvsmod #xc5dccb3d  bv_3) (bvadd #x5b939014  #x6a22a6f2 ))))
(assert (bvuge (bvudiv (bvnand #x481a565e  #x4eac44e5 ) (bvxnor bv_1 bv_4)) (bvand (bvnand bv_3 #xf2f82ce3 ) (bvsdiv #xe4209a7b  #xae7119b4 ))))
(assert (=> (bvsgt (bvsub #x79e397ee  bv_3) (bvxnor bv_3 bv_2)) (not (bvsle bv_2 #xa9a6dcfc ))))
(assert (xor (and (bvsge #xcefb72e3  bv_2) (bvugt #xeb68ef01  #xaee9d6d6 )) (bvule (bvlshr #xe96afd78  bv_4) (bvadd #xc2c4c038  bv_3))))
(assert (bvsge (bvashr (bvand bv_4 bv_4) (bvudiv #x9ca4dfbe  bv_1)) (bvsub (bvsub bv_0 #xe1f1288d ) (bvsmod bv_4 #x2d10fc43 ))))
(check-sat)
(exit)
